
******************************************************************************
This program contains Ipopt, a library for large-scale nonlinear optimization.
 Ipopt is released as open source code under the Eclipse Public License (EPL).
         For more information visit http://projects.coin-or.org/Ipopt
******************************************************************************

This is Ipopt version 3.12.6, running with linear solver ma57.

Number of nonzeros in equality constraint Jacobian...:    29997
Number of nonzeros in inequality constraint Jacobian.:        0
Number of nonzeros in Lagrangian Hessian.............:    19997

Total number of variables............................:    19999
                     variables with only lower bounds:        0
                variables with lower and upper bounds:    19999
                     variables with only upper bounds:        0
Total number of equality constraints.................:     9999
Total number of inequality constraints...............:        0
        inequality constraints with only lower bounds:        0
   inequality constraints with lower and upper bounds:        0
        inequality constraints with only upper bounds:        0

iter    objective    inf_pr   inf_du lg(mu)  ||d||  lg(rg) alpha_du alpha_pr  ls
   0  1.5962609e-12 9.92e-09 1.68e-08  -1.0 0.00e+00    -  0.00e+00 0.00e+00   0
   1  1.7367853e-12 4.44e-16 2.50e-16  -5.7 1.81e-06    -  1.00e+00 1.00e+00f  1
   2  1.6561261e-12 4.44e-16 2.51e-17  -8.6 1.80e-07    -  1.00e+00 1.00e+00h  1

Number of Iterations....: 2

                                   (scaled)                 (unscaled)
Objective...............:   1.6561260777790458e-12    1.6561260777790458e-12
Dual infeasibility......:   2.5072175238727290e-17    2.5072175238727290e-17
Constraint violation....:   4.4408920985006262e-16    4.4408920985006262e-16
Complementarity.........:   4.9591432459712252e-09    4.9591432459712252e-09
Overall NLP error.......:   4.9591432459712252e-09    4.9591432459712252e-09


Number of objective function evaluations             = 3
Number of objective gradient evaluations             = 3
Number of equality constraint evaluations            = 3
Number of inequality constraint evaluations          = 0
Number of equality constraint Jacobian evaluations   = 3
Number of inequality constraint Jacobian evaluations = 0
Number of Lagrangian Hessian evaluations             = 2
Total CPU secs in IPOPT (w/o function evaluations)   =      0.050
Total CPU secs in NLP function evaluations           =      0.013

EXIT: Optimal Solution Found.

************************ CUTEst statistics ************************


 Package used            :  IPOPT
 Problem                 :  GOULDQP2  
 # variables             =           19999
 # constraints           =            9999
 # objective functions   =        0.7000000E+01
 # objective gradients   =        0.4000000E+01
 # objective Hessians    =        0.3000000E+01
 # Hessian-vector prdct  =        0.0000000E+00
 # constraints functions =        0.8000000E+01
 # constraints gradients =        0.5000000E+01
 # constraints Hessians  =        0.3000000E+01
 Exit code               =               0
 Final f                 =   0.1656126E-11
 Set up time             =            0.31 seconds
 Solve time              =            0.24 seconds


******************************************************************

System Time =       0.0640000030 s.
